\* HI Lifetime *\
Minimize
OBJ: dummy
Subject To
Central_Node: _n0 = 1
_C1: _n1 + _n2 >= 1
_C2: _n3 + _n4 >= 1
_C3: _n5 + _n9 >= 1
_C4: _n0 + _n1 + _n2 + _n3 + _n4 + _n5 + _n6 + _n7 + _n8 + _n9 <= 6
Binaries
_n0
_n1
_n2
_n3
_n4
_n5
_n6
_n7
_n8
_n9
dummy
End
